
Gurobi 12.0.2 (win64) logging started Fri Jun  6 10:09:42 2025

Set parameter LogFile to value "C:\Ioana\_uni\honours\slp\algorithm\Main_files\results\others\prox_tubules_new\Task_004_Sample003_irr_gurobi.log"
Gurobi Optimizer version 12.0.2 build v12.0.2rc0 (win64 - Windows 11.0 (26100.2))

CPU model: Intel(R) Core(TM) Ultra 5 125H, instruction set [SSE2|AVX|AVX2]
Thread count: 14 physical cores, 18 logical processors, using up to 18 threads

Non-default parameters:
TimeLimit  2200

Optimize a model with 47658 rows, 34811 columns and 147858 nonzeros
Model fingerprint: 0x9a58d630
Variable types: 17417 continuous, 17394 integer (17394 binary)
Coefficient statistics:
  Matrix range     [1e-04, 8e+04]
  Objective range  [2e-04, 9e-01]
  Bounds range     [1e+00, 1e+03]
  RHS range        [1e+00, 1e+00]
Presolve removed 31249 rows and 21846 columns
Presolve time: 0.32s
Presolved: 16409 rows, 12965 columns, 54602 nonzeros
Variable types: 6419 continuous, 6546 integer (6546 binary)

Root relaxation: objective 8.973365e-03, 2660 iterations, 0.19 seconds (0.34 work units)

    Nodes    |    Current Node    |     Objective Bounds      |     Work
 Expl Unexpl |  Obj  Depth IntInf | Incumbent    BestBd   Gap | It/Node Time

     0     0    0.00897    0   16          -    0.00897      -     -    0s
H    0     0                       6.2649795    0.00897   100%     -    0s
     0     0    1.95104    0   29    6.26498    1.95104  68.9%     -    1s
     0     0    1.95104    0   29    6.26498    1.95104  68.9%     -    1s
     0     0    1.98873    0   28    6.26498    1.98873  68.3%     -    1s
     0     0    1.98874    0   29    6.26498    1.98874  68.3%     -    1s
     0     0    2.91908    0   32    6.26498    2.91908  53.4%     -    1s
     0     0    2.95124    0   33    6.26498    2.95124  52.9%     -    1s
     0     0    3.81022    0   28    6.26498    3.81022  39.2%     -    1s
     0     0    3.81022    0   28    6.26498    3.81022  39.2%     -    1s
     0     0    3.82634    0   37    6.26498    3.82634  38.9%     -    1s
     0     0    3.82634    0   37    6.26498    3.82634  38.9%     -    1s
     0     0    3.82634    0   33    6.26498    3.82634  38.9%     -    1s
     0     0    4.04430    0   63    6.26498    4.04430  35.4%     -    2s
     0     0    4.04543    0   68    6.26498    4.04543  35.4%     -    2s
     0     0    4.04758    0   64    6.26498    4.04758  35.4%     -    2s
     0     0    4.04759    0   65    6.26498    4.04759  35.4%     -    2s
     0     0    5.39137    0   64    6.26498    5.39137  13.9%     -    2s
     0     0    5.39137    0    8    6.26498    5.39137  13.9%     -    2s
     0     0    5.91941    0   21    6.26498    5.91941  5.52%     -    2s
     0     0    5.93564    0   20    6.26498    5.93564  5.26%     -    2s
     0     0 infeasible    0         6.26498    6.26498  0.00%     -    2s

Cutting planes:
  Learned: 3
  Gomory: 2
  Cover: 3
  MIR: 5
  Flow cover: 22
  Flow path: 2
  Network: 5
  Relax-and-lift: 2

Explored 1 nodes (7781 simplex iterations) in 2.39 seconds (2.66 work units)
Thread count was 18 (of 18 available processors)

Solution count 1: 6.26498 

Optimal solution found (tolerance 1.00e-04)
Best objective 6.264979480372e+00, best bound 6.264979480372e+00, gap 0.0000%

Gurobi 12.0.2 (win64) logging started Fri Jun  6 14:25:47 2025

Set parameter LogFile to value "C:\Ioana\_uni\honours\slp\algorithm\Main_files\results\others\prox_tubules_new\Task_004_Sample003_irr_gurobi.log"
Gurobi Optimizer version 12.0.2 build v12.0.2rc0 (win64 - Windows 11.0 (26100.2))

CPU model: Intel(R) Core(TM) Ultra 5 125H, instruction set [SSE2|AVX|AVX2]
Thread count: 14 physical cores, 18 logical processors, using up to 18 threads

Non-default parameters:
TimeLimit  2200

Optimize a model with 47658 rows, 34811 columns and 147858 nonzeros
Model fingerprint: 0x9a58d630
Variable types: 17417 continuous, 17394 integer (17394 binary)
Coefficient statistics:
  Matrix range     [1e-04, 8e+04]
  Objective range  [2e-04, 9e-01]
  Bounds range     [1e+00, 1e+03]
  RHS range        [1e+00, 1e+00]
Presolve removed 31249 rows and 21846 columns
Presolve time: 0.32s
Presolved: 16409 rows, 12965 columns, 54602 nonzeros
Variable types: 6419 continuous, 6546 integer (6546 binary)

Root relaxation: objective 8.973365e-03, 2660 iterations, 0.17 seconds (0.34 work units)

    Nodes    |    Current Node    |     Objective Bounds      |     Work
 Expl Unexpl |  Obj  Depth IntInf | Incumbent    BestBd   Gap | It/Node Time

     0     0    0.00897    0   16          -    0.00897      -     -    0s
H    0     0                       6.2649795    0.00897   100%     -    0s
     0     0    1.95104    0   29    6.26498    1.95104  68.9%     -    1s
     0     0    1.95104    0   29    6.26498    1.95104  68.9%     -    1s
     0     0    1.98873    0   28    6.26498    1.98873  68.3%     -    1s
     0     0    1.98874    0   29    6.26498    1.98874  68.3%     -    1s
     0     0    2.91908    0   32    6.26498    2.91908  53.4%     -    1s
     0     0    2.95124    0   33    6.26498    2.95124  52.9%     -    1s
     0     0    3.81022    0   28    6.26498    3.81022  39.2%     -    1s
     0     0    3.81022    0   28    6.26498    3.81022  39.2%     -    1s
     0     0    3.82634    0   37    6.26498    3.82634  38.9%     -    1s
     0     0    3.82634    0   37    6.26498    3.82634  38.9%     -    1s
     0     0    3.82634    0   33    6.26498    3.82634  38.9%     -    1s
     0     0    4.04430    0   63    6.26498    4.04430  35.4%     -    1s
     0     0    4.04543    0   68    6.26498    4.04543  35.4%     -    2s
     0     0    4.04758    0   64    6.26498    4.04758  35.4%     -    2s
     0     0    4.04759    0   65    6.26498    4.04759  35.4%     -    2s
     0     0    5.39137    0   64    6.26498    5.39137  13.9%     -    2s
     0     0    5.39137    0    8    6.26498    5.39137  13.9%     -    2s
     0     0    5.91941    0   21    6.26498    5.91941  5.52%     -    2s
     0     0    5.93564    0   20    6.26498    5.93564  5.26%     -    2s
     0     0 infeasible    0         6.26498    6.26498  0.00%     -    2s

Cutting planes:
  Learned: 3
  Gomory: 2
  Cover: 3
  MIR: 5
  Flow cover: 22
  Flow path: 2
  Network: 5
  Relax-and-lift: 2

Explored 1 nodes (7781 simplex iterations) in 2.30 seconds (2.66 work units)
Thread count was 18 (of 18 available processors)

Solution count 1: 6.26498 

Optimal solution found (tolerance 1.00e-04)
Best objective 6.264979480372e+00, best bound 6.264979480372e+00, gap 0.0000%
